p cnf 144 589
1 2 3 4 5 6 7 8 9 10 11 12 13 14 15 16 0
32 33 34 35 36 37 38 39 40 41 42 43 44 0
59 60 61 62 63 64 65 66 67 68 69 70 71 72 0
73 74 75 76 77 78 79 80 81 82 83 84 85 86 87 0
88 89 90 91 92 93 94 95 96 97 98 99 100 101 0
117 118 119 120 121 122 123 124 125 126 127 128 129 130 131 0
-1 -17 0
-1 -32 0
-1 -45 0
-1 -59 0
-1 -73 0
-1 -88 0
-1 -102 0
-1 -117 0
-1 -132 0
-17 -32 0
-17 -45 0
-17 -59 0
-17 -73 0
-17 -88 0
-17 -102 0
-17 -117 0
-17 -132 0
-32 -45 0
-32 -59 0
-32 -73 0
-32 -88 0
-32 -102 0
-32 -117 0
-32 -132 0
-45 -59 0
-45 -73 0
-45 -88 0
-45 -102 0
-45 -117 0
-45 -132 0
-59 -73 0
-59 -88 0
-59 -102 0
-59 -117 0
-59 -132 0
-73 -88 0
-73 -102 0
-73 -117 0
-73 -132 0
-88 -102 0
-88 -117 0
-88 -132 0
-102 -117 0
-102 -132 0
-117 -132 0
-2 -18 0
-2 -33 0
-2 -46 0
-2 -60 0
-2 -103 0
-2 -118 0
-2 -133 0
-18 -33 0
-18 -46 0
-18 -60 0
-18 -103 0
-18 -118 0
-18 -133 0
-33 -46 0
-33 -60 0
-33 -103 0
-33 -118 0
-33 -133 0
-46 -60 0
-46 -103 0
-46 -118 0
-46 -133 0
-60 -103 0
-60 -118 0
-60 -133 0
-103 -118 0
-103 -133 0
-118 -133 0
-3 -19 0
-3 -34 0
-3 -47 0
-3 -74 0
-3 -104 0
-3 -119 0
-19 -34 0
-19 -47 0
-19 -74 0
-19 -104 0
-19 -119 0
-34 -47 0
-34 -74 0
-34 -104 0
-34 -119 0
-47 -74 0
-47 -104 0
-47 -119 0
-74 -104 0
-74 -119 0
-104 -119 0
-4 -20 0
-4 -48 0
-4 -61 0
-4 -75 0
-4 -89 0
-4 -105 0
-4 -120 0
-4 -134 0
-20 -48 0
-20 -61 0
-20 -75 0
-20 -89 0
-20 -105 0
-20 -120 0
-20 -134 0
-48 -61 0
-48 -75 0
-48 -89 0
-48 -105 0
-48 -120 0
-48 -134 0
-61 -75 0
-61 -89 0
-61 -105 0
-61 -120 0
-61 -134 0
-75 -89 0
-75 -105 0
-75 -120 0
-75 -134 0
-89 -105 0
-89 -120 0
-89 -134 0
-105 -120 0
-105 -134 0
-120 -134 0
-5 -21 0
-5 -35 0
-5 -49 0
-5 -62 0
-5 -76 0
-5 -90 0
-5 -106 0
-5 -121 0
-21 -35 0
-21 -49 0
-21 -62 0
-21 -76 0
-21 -90 0
-21 -106 0
-21 -121 0
-35 -49 0
-35 -62 0
-35 -76 0
-35 -90 0
-35 -106 0
-35 -121 0
-49 -62 0
-49 -76 0
-49 -90 0
-49 -106 0
-49 -121 0
-62 -76 0
-62 -90 0
-62 -106 0
-62 -121 0
-76 -90 0
-76 -106 0
-76 -121 0
-90 -106 0
-90 -121 0
-106 -121 0
-6 -50 0
-6 -63 0
-6 -77 0
-6 -91 0
-6 -107 0
-6 -122 0
-6 -135 0
-50 -63 0
-50 -77 0
-50 -91 0
-50 -107 0
-50 -122 0
-50 -135 0
-63 -77 0
-63 -91 0
-63 -107 0
-63 -122 0
-63 -135 0
-77 -91 0
-77 -107 0
-77 -122 0
-77 -135 0
-91 -107 0
-91 -122 0
-91 -135 0
-107 -122 0
-107 -135 0
-122 -135 0
-7 -22 0
-7 -36 0
-7 -51 0
-7 -64 0
-7 -78 0
-7 -92 0
-7 -108 0
-7 -123 0
-7 -136 0
-22 -36 0
-22 -51 0
-22 -64 0
-22 -78 0
-22 -92 0
-22 -108 0
-22 -123 0
-22 -136 0
-36 -51 0
-36 -64 0
-36 -78 0
-36 -92 0
-36 -108 0
-36 -123 0
-36 -136 0
-51 -64 0
-51 -78 0
-51 -92 0
-51 -108 0
-51 -123 0
-51 -136 0
-64 -78 0
-64 -92 0
-64 -108 0
-64 -123 0
-64 -136 0
-78 -92 0
-78 -108 0
-78 -123 0
-78 -136 0
-92 -108 0
-92 -123 0
-92 -136 0
-108 -123 0
-108 -136 0
-123 -136 0
-8 -23 0
-8 -37 0
-8 -65 0
-8 -79 0
-8 -93 0
-8 -109 0
-8 -124 0
-8 -137 0
-23 -37 0
-23 -65 0
-23 -79 0
-23 -93 0
-23 -109 0
-23 -124 0
-23 -137 0
-37 -65 0
-37 -79 0
-37 -93 0
-37 -109 0
-37 -124 0
-37 -137 0
-65 -79 0
-65 -93 0
-65 -109 0
-65 -124 0
-65 -137 0
-79 -93 0
-79 -109 0
-79 -124 0
-79 -137 0
-93 -109 0
-93 -124 0
-93 -137 0
-109 -124 0
-109 -137 0
-124 -137 0
-9 -24 0
-9 -38 0
-9 -52 0
-9 -66 0
-9 -80 0
-9 -94 0
-9 -110 0
-9 -125 0
-9 -138 0
-24 -38 0
-24 -52 0
-24 -66 0
-24 -80 0
-24 -94 0
-24 -110 0
-24 -125 0
-24 -138 0
-38 -52 0
-38 -66 0
-38 -80 0
-38 -94 0
-38 -110 0
-38 -125 0
-38 -138 0
-52 -66 0
-52 -80 0
-52 -94 0
-52 -110 0
-52 -125 0
-52 -138 0
-66 -80 0
-66 -94 0
-66 -110 0
-66 -125 0
-66 -138 0
-80 -94 0
-80 -110 0
-80 -125 0
-80 -138 0
-94 -110 0
-94 -125 0
-94 -138 0
-110 -125 0
-110 -138 0
-125 -138 0
-10 -25 0
-10 -39 0
-10 -53 0
-10 -67 0
-10 -81 0
-10 -95 0
-10 -111 0
-10 -126 0
-10 -139 0
-25 -39 0
-25 -53 0
-25 -67 0
-25 -81 0
-25 -95 0
-25 -111 0
-25 -126 0
-25 -139 0
-39 -53 0
-39 -67 0
-39 -81 0
-39 -95 0
-39 -111 0
-39 -126 0
-39 -139 0
-53 -67 0
-53 -81 0
-53 -95 0
-53 -111 0
-53 -126 0
-53 -139 0
-67 -81 0
-67 -95 0
-67 -111 0
-67 -126 0
-67 -139 0
-81 -95 0
-81 -111 0
-81 -126 0
-81 -139 0
-95 -111 0
-95 -126 0
-95 -139 0
-111 -126 0
-111 -139 0
-126 -139 0
-11 -26 0
-11 -54 0
-11 -68 0
-11 -82 0
-11 -96 0
-11 -112 0
-11 -140 0
-26 -54 0
-26 -68 0
-26 -82 0
-26 -96 0
-26 -112 0
-26 -140 0
-54 -68 0
-54 -82 0
-54 -96 0
-54 -112 0
-54 -140 0
-68 -82 0
-68 -96 0
-68 -112 0
-68 -140 0
-82 -96 0
-82 -112 0
-82 -140 0
-96 -112 0
-96 -140 0
-112 -140 0
-12 -27 0
-12 -40 0
-12 -55 0
-12 -69 0
-12 -83 0
-12 -97 0
-12 -127 0
-12 -141 0
-27 -40 0
-27 -55 0
-27 -69 0
-27 -83 0
-27 -97 0
-27 -127 0
-27 -141 0
-40 -55 0
-40 -69 0
-40 -83 0
-40 -97 0
-40 -127 0
-40 -141 0
-55 -69 0
-55 -83 0
-55 -97 0
-55 -127 0
-55 -141 0
-69 -83 0
-69 -97 0
-69 -127 0
-69 -141 0
-83 -97 0
-83 -127 0
-83 -141 0
-97 -127 0
-97 -141 0
-127 -141 0
-13 -28 0
-13 -41 0
-13 -56 0
-13 -84 0
-13 -98 0
-13 -113 0
-13 -128 0
-13 -142 0
-28 -41 0
-28 -56 0
-28 -84 0
-28 -98 0
-28 -113 0
-28 -128 0
-28 -142 0
-41 -56 0
-41 -84 0
-41 -98 0
-41 -113 0
-41 -128 0
-41 -142 0
-56 -84 0
-56 -98 0
-56 -113 0
-56 -128 0
-56 -142 0
-84 -98 0
-84 -113 0
-84 -128 0
-84 -142 0
-98 -113 0
-98 -128 0
-98 -142 0
-113 -128 0
-113 -142 0
-128 -142 0
-14 -29 0
-14 -42 0
-14 -70 0
-14 -85 0
-14 -99 0
-14 -114 0
-14 -129 0
-29 -42 0
-29 -70 0
-29 -85 0
-29 -99 0
-29 -114 0
-29 -129 0
-42 -70 0
-42 -85 0
-42 -99 0
-42 -114 0
-42 -129 0
-70 -85 0
-70 -99 0
-70 -114 0
-70 -129 0
-85 -99 0
-85 -114 0
-85 -129 0
-99 -114 0
-99 -129 0
-114 -129 0
-15 -30 0
-15 -43 0
-15 -57 0
-15 -71 0
-15 -86 0
-15 -100 0
-15 -115 0
-15 -130 0
-15 -143 0
-30 -43 0
-30 -57 0
-30 -71 0
-30 -86 0
-30 -100 0
-30 -115 0
-30 -130 0
-30 -143 0
-43 -57 0
-43 -71 0
-43 -86 0
-43 -100 0
-43 -115 0
-43 -130 0
-43 -143 0
-57 -71 0
-57 -86 0
-57 -100 0
-57 -115 0
-57 -130 0
-57 -143 0
-71 -86 0
-71 -100 0
-71 -115 0
-71 -130 0
-71 -143 0
-86 -100 0
-86 -115 0
-86 -130 0
-86 -143 0
-100 -115 0
-100 -130 0
-100 -143 0
-115 -130 0
-115 -143 0
-130 -143 0
-16 -31 0
-16 -44 0
-16 -58 0
-16 -72 0
-16 -87 0
-16 -101 0
-16 -116 0
-16 -131 0
-16 -144 0
-31 -44 0
-31 -58 0
-31 -72 0
-31 -87 0
-31 -101 0
-31 -116 0
-31 -131 0
-31 -144 0
-44 -58 0
-44 -72 0
-44 -87 0
-44 -101 0
-44 -116 0
-44 -131 0
-44 -144 0
-58 -72 0
-58 -87 0
-58 -101 0
-58 -116 0
-58 -131 0
-58 -144 0
-72 -87 0
-72 -101 0
-72 -116 0
-72 -131 0
-72 -144 0
-87 -101 0
-87 -116 0
-87 -131 0
-87 -144 0
-101 -116 0
-101 -131 0
-101 -144 0
-116 -131 0
-116 -144 0
-131 -144 0
